p edge 20 106
e 1 9
e 1 2
e 1 3
e 1 8
e 1 11
e 1 13
e 1 2
e 1 3
e 1 8
e 1 9
e 1 11
e 1 13
e 2 8
e 2 3
e 2 4
e 2 3
e 2 4
e 2 8
e 3 6
e 3 14
e 3 7
e 3 16
e 3 6
e 3 7
e 3 14
e 3 16
e 4 16
e 4 5
e 4 6
e 4 7
e 4 5
e 4 6
e 4 7
e 4 16
e 5 13
e 5 15
e 5 6
e 5 7
e 5 19
e 5 6
e 5 7
e 5 13
e 5 15
e 5 19
e 6 14
e 6 7
e 6 10
e 6 20
e 6 7
e 6 10
e 6 14
e 6 20
e 7 16
e 7 16
e 8 14
e 8 20
e 8 11
e 8 13
e 8 11
e 8 13
e 8 14
e 8 20
e 9 10
e 9 14
e 9 18
e 9 10
e 9 14
e 9 18
e 10 17
e 10 20
e 10 17
e 10 20
e 11 12
e 11 13
e 11 12
e 11 13
e 12 18
e 12 13
e 12 14
e 12 15
e 12 13
e 12 14
e 12 15
e 12 18
e 13 19
e 13 15
e 13 14
e 13 14
e 13 15
e 13 19
e 14 20
e 14 18
e 14 18
e 14 20
e 17 18
e 17 19
e 17 20
e 17 18
e 17 19
e 17 20
e 18 19
e 18 20
e 18 19
e 18 20
e 19 20
e 19 20
